w = 48;
w_holy = [3,3,3,2,2,2,2,3,2,2,2,2,2,2,2,2,2,3,2,2,2,2,2,2,2,2,2,2,3,2,2,2,2,2,3,2,4,3,2,2,2,2,2,2,2,2,2,2];
p = 9;
p_done = [5,5,5,6,6,12,7,6,8];
p_vaca = [{2,3,14,19,38},{3,4,12,18,19},{10,11,12},{2,3,10},{},{2,3},{2,15,16},{7,12,14,19,20,37},{8,18,19}];
p_volu = [{18,29},{},{2},{},{1},{},{},{3},{1}];
wrest = 3;
wsmin = 3;